(declare-const e1_1 Real)
(assert (and (<= e1_1 1) and (>= e1_1 -1)))
(declare-const e2_1 Real)
(assert (and (<= e2_1 1) and (>= e2_1 -1)))
(declare-const eu_1 Real)
(assert (and (<= eu_1 1) and (>= eu_1 -1)))
(declare-const e1_2 Real)
(assert (and (<= e1_2 1) and (>= e1_2 -1)))
(declare-const e2_2 Real)
(assert (and (<= e2_2 1) and (>= e2_2 -1)))
(declare-const eu_2 Real)
(assert (and (<= eu_2 1) and (>= eu_2 -1)))
(declare-const e1_3 Real)
(assert (and (<= e1_3 1) and (>= e1_3 -1)))
(declare-const e2_3 Real)
(assert (and (<= e2_3 1) and (>= e2_3 -1)))
(declare-const eu_3 Real)
(assert (and (<= eu_3 1) and (>= eu_3 -1)))
(declare-const e1_4 Real)
(assert (and (<= e1_4 1) and (>= e1_4 -1)))
(declare-const e2_4 Real)
(assert (and (<= e2_4 1) and (>= e2_4 -1)))
(declare-const eu_4 Real)
(assert (and (<= eu_4 1) and (>= eu_4 -1)))
(declare-const e1_5 Real)
(assert (and (<= e1_5 1) and (>= e1_5 -1)))
(declare-const e2_5 Real)
(assert (and (<= e2_5 1) and (>= e2_5 -1)))
(declare-const eu_5 Real)
(assert (and (<= eu_5 1) and (>= eu_5 -1)))
(declare-const e1_6 Real)
(assert (and (<= e1_6 1) and (>= e1_6 -1)))
(declare-const e2_6 Real)
(assert (and (<= e2_6 1) and (>= e2_6 -1)))
(declare-const eu_6 Real)
(assert (and (<= eu_6 1) and (>= eu_6 -1)))
(declare-const e1_7 Real)
(assert (and (<= e1_7 1) and (>= e1_7 -1)))
(declare-const e2_7 Real)
(assert (and (<= e2_7 1) and (>= e2_7 -1)))
(declare-const eu_7 Real)
(assert (and (<= eu_7 1) and (>= eu_7 -1)))

(declare-const c_0 Real)
(declare-const c_1 Real)
(declare-const c_2 Real)
(declare-const c_3 Real)
(declare-const d_0 Real)
(declare-const d_1 Real)
(declare-const d_2 Real)
(declare-const d_3 Real)

(assert (= 0 (+ c_0 (* c_1 e1_1) (* c_2 e2_1) (* c_3 eu_1))))
(assert (= -2 (+ d_0 (* d_1 e1_1) (* d_2 e2_1) (* d_3 eu_1))))
(assert (= 4 (+ c_0 (* c_1 e1_2) (* c_2 e2_2) (* c_3 eu_2))))
(assert (= 0 (+ d_0 (* d_1 e1_2) (* d_2 e2_2) (* d_3 eu_2))))
(assert (= 2 (+ c_0 (* c_1 e1_3) (* c_2 e2_3) (* c_3 eu_3))))
(assert (= 0 (+ d_0 (* d_1 e1_3) (* d_2 e2_3) (* d_3 eu_3))))
(assert (= 6 (+ c_0 (* c_1 e1_4) (* c_2 e2_4) (* c_3 eu_4))))
(assert (= 2 (+ d_0 (* d_1 e1_4) (* d_2 e2_4) (* d_3 eu_4))))
(assert (= 2 (+ c_0 (* c_1 e1_5) (* c_2 e2_5) (* c_3 eu_5))))
(assert (= -2 (+ d_0 (* d_1 e1_5) (* d_2 e2_5) (* d_3 eu_5))))
(assert (= -2 (+ c_0 (* c_1 e1_6) (* c_2 e2_6) (* c_3 eu_6))))
(assert (= 0 (+ d_0 (* d_1 e1_6) (* d_2 e2_6) (* d_3 eu_6))))
(assert (= 0 (+ c_0 (* c_1 e1_7) (* c_2 e2_7) (* c_3 eu_7))))
(assert (= 2 (+ d_0 (* d_1 e1_7) (* d_2 e2_7) (* d_3 eu_7))))

(check-sat)
(get-model)
